(set-logic QF_LIA)
(set-info :ran/ran2.smt2)
(set-info :smt-lib-version 2.0)
(declare-fun x1 () Int)
(declare-fun x2 () Int)
(declare-fun x3 () Int)
(declare-fun x4 () Int)
(declare-fun x5 () Int)
(declare-fun x6 () Int)
(assert (<= (+ (* (- 5) x1) (* (- 3) x2) (* 5 x3) (* (- 8) x4) (* (- 2) x5) (* (- 5) x6) ) (- 28)))
(assert (<= (+ (* (- 3) x1) (* (- 10) x2) (* (- 6) x3) (* 2 x4) (* 1 x5) (* (- 4) x6) ) (- 72)))
(assert (<= (+ (* (- 5) x1) (* 10 x2) (* 5 x3) (* (- 7) x4) (* 2 x5) (* 10 x6) ) 160))
(assert (<= (+ (* (- 10) x1) (* (- 10) x2) (* (- 6) x3) (* 6 x4) (* (- 7) x5) (* (- 5) x6) ) (- 148)))
(assert (<= (+ (* 0 x1) (* (- 9) x2) (* 4 x3) (* 5 x4) (* (- 4) x5) (* (- 2) x6) ) 10))
(assert (<= (+ (* 5 x1) (* 4 x2) (* 2 x3) (* 10 x4) (* 2 x5) (* 4 x6) ) 114))
(assert (<= (+ (* (- 9) x1) (* 10 x2) (* (- 2) x3) (* (- 4) x4) (* 8 x5) (* (- 10) x6) ) 158))
(assert (<= (+ (* (- 1) x1) (* 10 x2) (* 8 x3) (* (- 1) x4) (* 10 x5) (* 10 x6) ) 149))
(assert (<= (+ (* (- 10) x1) (* (- 6) x2) (* (- 10) x3) (* (- 1) x4) (* (- 7) x5) (* 5 x6) ) (- 137)))
(assert (<= (+ (* (- 1) x1) (* (- 10) x2) (* 7 x3) (* (- 7) x4) (* 2 x5) (* (- 4) x6) ) (- 68)))
(assert (<= (+ (* (- 6) x1) (* (- 10) x2) (* 1 x3) (* (- 5) x4) (* 8 x5) (* 9 x6) ) (- 72)))
(assert (<= (+ (* 5 x1) (* 7 x2) (* 7 x3) (* (- 7) x4) (* 6 x5) (* 4 x6) ) (- 38)))
(assert (<= (+ (* 1 x1) (* 0 x2) (* 0 x3) (* 0 x4) (* 0 x5) (* 0 x6) ) 177))
(assert (<= (+ (* (- 1) x1) (* 0 x2) (* 0 x3) (* 0 x4) (* 0 x5) (* 0 x6) ) 177))
(assert (<= (+ (* 0 x1) (* 1 x2) (* 0 x3) (* 0 x4) (* 0 x5) (* 0 x6) ) 177))
(assert (<= (+ (* 0 x1) (* (- 1) x2) (* 0 x3) (* 0 x4) (* 0 x5) (* 0 x6) ) 177))
(assert (<= (+ (* 0 x1) (* 0 x2) (* 1 x3) (* 0 x4) (* 0 x5) (* 0 x6) ) 177))
(assert (<= (+ (* 0 x1) (* 0 x2) (* (- 1) x3) (* 0 x4) (* 0 x5) (* 0 x6) ) 177))
(assert (<= (+ (* 0 x1) (* 0 x2) (* 0 x3) (* 1 x4) (* 0 x5) (* 0 x6) ) 177))
(assert (<= (+ (* 0 x1) (* 0 x2) (* 0 x3) (* (- 1) x4) (* 0 x5) (* 0 x6) ) 177))
(assert (<= (+ (* 0 x1) (* 0 x2) (* 0 x3) (* 0 x4) (* 1 x5) (* 0 x6) ) 177))
(assert (<= (+ (* 0 x1) (* 0 x2) (* 0 x3) (* 0 x4) (* (- 1) x5) (* 0 x6) ) 177))
(assert (<= (+ (* 0 x1) (* 0 x2) (* 0 x3) (* 0 x4) (* 0 x5) (* 1 x6) ) 177))
(assert (<= (+ (* 0 x1) (* 0 x2) (* 0 x3) (* 0 x4) (* 0 x5) (* (- 1) x6) ) 177))
